c *********************************
c * Circuit generated by BenCGen
c *
c * CarryLookaheadBlock_69_69_69_InOutT
c *
c * Ports with 1 gate(s): 2
c * Ports with 2 gate(s): 295
c * Ports with 3 gate(s): 68
c * Ports with 4 gate(s): 51
c * Ports with 5 gate(s): 34
c * Total gates: 450
c *********************************
p cnf 588 1758
1 210 0
-1 -210 0
1 -209 0
210 -209 0
-1 -210 209 0
1 70 -211 0
-1 70 211 0
1 -70 211 0
-1 -70 -211 0
1 -280 0
70 -280 0
-1 -70 280 0
2 71 -212 0
-2 71 212 0
2 -71 212 0
-2 -71 -212 0
2 -281 0
71 -281 0
-2 -71 281 0
3 72 -213 0
-3 72 213 0
3 -72 213 0
-3 -72 -213 0
3 -282 0
72 -282 0
-3 -72 282 0
4 73 -214 0
-4 73 214 0
4 -73 214 0
-4 -73 -214 0
4 -283 0
73 -283 0
-4 -73 283 0
5 74 -215 0
-5 74 215 0
5 -74 215 0
-5 -74 -215 0
5 -284 0
74 -284 0
-5 -74 284 0
6 75 -216 0
-6 75 216 0
6 -75 216 0
-6 -75 -216 0
6 -285 0
75 -285 0
-6 -75 285 0
7 76 -217 0
-7 76 217 0
7 -76 217 0
-7 -76 -217 0
7 -286 0
76 -286 0
-7 -76 286 0
8 77 -218 0
-8 77 218 0
8 -77 218 0
-8 -77 -218 0
8 -287 0
77 -287 0
-8 -77 287 0
9 78 -219 0
-9 78 219 0
9 -78 219 0
-9 -78 -219 0
9 -288 0
78 -288 0
-9 -78 288 0
10 79 -220 0
-10 79 220 0
10 -79 220 0
-10 -79 -220 0
10 -289 0
79 -289 0
-10 -79 289 0
11 80 -221 0
-11 80 221 0
11 -80 221 0
-11 -80 -221 0
11 -290 0
80 -290 0
-11 -80 290 0
12 81 -222 0
-12 81 222 0
12 -81 222 0
-12 -81 -222 0
12 -291 0
81 -291 0
-12 -81 291 0
13 82 -223 0
-13 82 223 0
13 -82 223 0
-13 -82 -223 0
13 -292 0
82 -292 0
-13 -82 292 0
14 83 -224 0
-14 83 224 0
14 -83 224 0
-14 -83 -224 0
14 -293 0
83 -293 0
-14 -83 293 0
15 84 -225 0
-15 84 225 0
15 -84 225 0
-15 -84 -225 0
15 -294 0
84 -294 0
-15 -84 294 0
16 85 -226 0
-16 85 226 0
16 -85 226 0
-16 -85 -226 0
16 -295 0
85 -295 0
-16 -85 295 0
17 86 -227 0
-17 86 227 0
17 -86 227 0
-17 -86 -227 0
17 -296 0
86 -296 0
-17 -86 296 0
18 87 -228 0
-18 87 228 0
18 -87 228 0
-18 -87 -228 0
18 -297 0
87 -297 0
-18 -87 297 0
19 88 -229 0
-19 88 229 0
19 -88 229 0
-19 -88 -229 0
19 -298 0
88 -298 0
-19 -88 298 0
20 89 -230 0
-20 89 230 0
20 -89 230 0
-20 -89 -230 0
20 -299 0
89 -299 0
-20 -89 299 0
21 90 -231 0
-21 90 231 0
21 -90 231 0
-21 -90 -231 0
21 -300 0
90 -300 0
-21 -90 300 0
22 91 -232 0
-22 91 232 0
22 -91 232 0
-22 -91 -232 0
22 -301 0
91 -301 0
-22 -91 301 0
23 92 -233 0
-23 92 233 0
23 -92 233 0
-23 -92 -233 0
23 -302 0
92 -302 0
-23 -92 302 0
24 93 -234 0
-24 93 234 0
24 -93 234 0
-24 -93 -234 0
24 -303 0
93 -303 0
-24 -93 303 0
25 94 -235 0
-25 94 235 0
25 -94 235 0
-25 -94 -235 0
25 -304 0
94 -304 0
-25 -94 304 0
26 95 -236 0
-26 95 236 0
26 -95 236 0
-26 -95 -236 0
26 -305 0
95 -305 0
-26 -95 305 0
27 96 -237 0
-27 96 237 0
27 -96 237 0
-27 -96 -237 0
27 -306 0
96 -306 0
-27 -96 306 0
28 97 -238 0
-28 97 238 0
28 -97 238 0
-28 -97 -238 0
28 -307 0
97 -307 0
-28 -97 307 0
29 98 -239 0
-29 98 239 0
29 -98 239 0
-29 -98 -239 0
29 -308 0
98 -308 0
-29 -98 308 0
30 99 -240 0
-30 99 240 0
30 -99 240 0
-30 -99 -240 0
30 -309 0
99 -309 0
-30 -99 309 0
31 100 -241 0
-31 100 241 0
31 -100 241 0
-31 -100 -241 0
31 -310 0
100 -310 0
-31 -100 310 0
32 101 -242 0
-32 101 242 0
32 -101 242 0
-32 -101 -242 0
32 -311 0
101 -311 0
-32 -101 311 0
33 102 -243 0
-33 102 243 0
33 -102 243 0
-33 -102 -243 0
33 -312 0
102 -312 0
-33 -102 312 0
34 103 -244 0
-34 103 244 0
34 -103 244 0
-34 -103 -244 0
34 -313 0
103 -313 0
-34 -103 313 0
35 104 -245 0
-35 104 245 0
35 -104 245 0
-35 -104 -245 0
35 -314 0
104 -314 0
-35 -104 314 0
36 105 -246 0
-36 105 246 0
36 -105 246 0
-36 -105 -246 0
36 -315 0
105 -315 0
-36 -105 315 0
37 106 -247 0
-37 106 247 0
37 -106 247 0
-37 -106 -247 0
37 -316 0
106 -316 0
-37 -106 316 0
38 107 -248 0
-38 107 248 0
38 -107 248 0
-38 -107 -248 0
38 -317 0
107 -317 0
-38 -107 317 0
39 108 -249 0
-39 108 249 0
39 -108 249 0
-39 -108 -249 0
39 -318 0
108 -318 0
-39 -108 318 0
40 109 -250 0
-40 109 250 0
40 -109 250 0
-40 -109 -250 0
40 -319 0
109 -319 0
-40 -109 319 0
41 110 -251 0
-41 110 251 0
41 -110 251 0
-41 -110 -251 0
41 -320 0
110 -320 0
-41 -110 320 0
42 111 -252 0
-42 111 252 0
42 -111 252 0
-42 -111 -252 0
42 -321 0
111 -321 0
-42 -111 321 0
43 112 -253 0
-43 112 253 0
43 -112 253 0
-43 -112 -253 0
43 -322 0
112 -322 0
-43 -112 322 0
44 113 -254 0
-44 113 254 0
44 -113 254 0
-44 -113 -254 0
44 -323 0
113 -323 0
-44 -113 323 0
45 114 -255 0
-45 114 255 0
45 -114 255 0
-45 -114 -255 0
45 -324 0
114 -324 0
-45 -114 324 0
46 115 -256 0
-46 115 256 0
46 -115 256 0
-46 -115 -256 0
46 -325 0
115 -325 0
-46 -115 325 0
47 116 -257 0
-47 116 257 0
47 -116 257 0
-47 -116 -257 0
47 -326 0
116 -326 0
-47 -116 326 0
48 117 -258 0
-48 117 258 0
48 -117 258 0
-48 -117 -258 0
48 -327 0
117 -327 0
-48 -117 327 0
49 118 -259 0
-49 118 259 0
49 -118 259 0
-49 -118 -259 0
49 -328 0
118 -328 0
-49 -118 328 0
50 119 -260 0
-50 119 260 0
50 -119 260 0
-50 -119 -260 0
50 -329 0
119 -329 0
-50 -119 329 0
51 120 -261 0
-51 120 261 0
51 -120 261 0
-51 -120 -261 0
51 -330 0
120 -330 0
-51 -120 330 0
52 121 -262 0
-52 121 262 0
52 -121 262 0
-52 -121 -262 0
52 -331 0
121 -331 0
-52 -121 331 0
53 122 -263 0
-53 122 263 0
53 -122 263 0
-53 -122 -263 0
53 -332 0
122 -332 0
-53 -122 332 0
54 123 -264 0
-54 123 264 0
54 -123 264 0
-54 -123 -264 0
54 -333 0
123 -333 0
-54 -123 333 0
55 124 -265 0
-55 124 265 0
55 -124 265 0
-55 -124 -265 0
55 -334 0
124 -334 0
-55 -124 334 0
56 125 -266 0
-56 125 266 0
56 -125 266 0
-56 -125 -266 0
56 -335 0
125 -335 0
-56 -125 335 0
57 126 -267 0
-57 126 267 0
57 -126 267 0
-57 -126 -267 0
57 -336 0
126 -336 0
-57 -126 336 0
58 127 -268 0
-58 127 268 0
58 -127 268 0
-58 -127 -268 0
58 -337 0
127 -337 0
-58 -127 337 0
59 128 -269 0
-59 128 269 0
59 -128 269 0
-59 -128 -269 0
59 -338 0
128 -338 0
-59 -128 338 0
60 129 -270 0
-60 129 270 0
60 -129 270 0
-60 -129 -270 0
60 -339 0
129 -339 0
-60 -129 339 0
61 130 -271 0
-61 130 271 0
61 -130 271 0
-61 -130 -271 0
61 -340 0
130 -340 0
-61 -130 340 0
62 131 -272 0
-62 131 272 0
62 -131 272 0
-62 -131 -272 0
62 -341 0
131 -341 0
-62 -131 341 0
63 132 -273 0
-63 132 273 0
63 -132 273 0
-63 -132 -273 0
63 -342 0
132 -342 0
-63 -132 342 0
64 133 -274 0
-64 133 274 0
64 -133 274 0
-64 -133 -274 0
64 -343 0
133 -343 0
-64 -133 343 0
65 134 -275 0
-65 134 275 0
65 -134 275 0
-65 -134 -275 0
65 -344 0
134 -344 0
-65 -134 344 0
66 135 -276 0
-66 135 276 0
66 -135 276 0
-66 -135 -276 0
66 -345 0
135 -345 0
-66 -135 345 0
67 136 -277 0
-67 136 277 0
67 -136 277 0
-67 -136 -277 0
67 -346 0
136 -346 0
-67 -136 346 0
68 137 -278 0
-68 137 278 0
68 -137 278 0
-68 -137 -278 0
68 -347 0
137 -347 0
-68 -137 347 0
69 138 -279 0
-69 138 279 0
69 -138 279 0
-69 -138 -279 0
69 -348 0
138 -348 0
-69 -138 348 0
209 -418 0
211 -418 0
-209 -211 418 0
209 -419 0
211 -419 0
212 -419 0
-209 -211 -212 419 0
280 -420 0
212 -420 0
-280 -212 420 0
209 -421 0
211 -421 0
212 -421 0
213 -421 0
-209 -211 -212 -213 421 0
280 -422 0
212 -422 0
213 -422 0
-280 -212 -213 422 0
281 -423 0
213 -423 0
-281 -213 423 0
209 -424 0
211 -424 0
212 -424 0
213 -424 0
214 -424 0
-209 -211 -212 -213 -214 424 0
280 -425 0
212 -425 0
213 -425 0
214 -425 0
-280 -212 -213 -214 425 0
281 -426 0
213 -426 0
214 -426 0
-281 -213 -214 426 0
282 -427 0
214 -427 0
-282 -214 427 0
-280 349 0
-418 349 0
280 418 -349 0
-281 350 0
-419 350 0
-420 350 0
281 419 420 -350 0
-282 351 0
-421 351 0
-422 351 0
-423 351 0
282 421 422 423 -351 0
-283 352 0
-424 352 0
-425 352 0
-426 352 0
-427 352 0
283 424 425 426 427 -352 0
352 -428 0
215 -428 0
-352 -215 428 0
352 -429 0
215 -429 0
216 -429 0
-352 -215 -216 429 0
284 -430 0
216 -430 0
-284 -216 430 0
352 -431 0
215 -431 0
216 -431 0
217 -431 0
-352 -215 -216 -217 431 0
284 -432 0
216 -432 0
217 -432 0
-284 -216 -217 432 0
285 -433 0
217 -433 0
-285 -217 433 0
352 -434 0
215 -434 0
216 -434 0
217 -434 0
218 -434 0
-352 -215 -216 -217 -218 434 0
284 -435 0
216 -435 0
217 -435 0
218 -435 0
-284 -216 -217 -218 435 0
285 -436 0
217 -436 0
218 -436 0
-285 -217 -218 436 0
286 -437 0
218 -437 0
-286 -218 437 0
-284 353 0
-428 353 0
284 428 -353 0
-285 354 0
-429 354 0
-430 354 0
285 429 430 -354 0
-286 355 0
-431 355 0
-432 355 0
-433 355 0
286 431 432 433 -355 0
-287 356 0
-434 356 0
-435 356 0
-436 356 0
-437 356 0
287 434 435 436 437 -356 0
356 -438 0
219 -438 0
-356 -219 438 0
356 -439 0
219 -439 0
220 -439 0
-356 -219 -220 439 0
288 -440 0
220 -440 0
-288 -220 440 0
356 -441 0
219 -441 0
220 -441 0
221 -441 0
-356 -219 -220 -221 441 0
288 -442 0
220 -442 0
221 -442 0
-288 -220 -221 442 0
289 -443 0
221 -443 0
-289 -221 443 0
356 -444 0
219 -444 0
220 -444 0
221 -444 0
222 -444 0
-356 -219 -220 -221 -222 444 0
288 -445 0
220 -445 0
221 -445 0
222 -445 0
-288 -220 -221 -222 445 0
289 -446 0
221 -446 0
222 -446 0
-289 -221 -222 446 0
290 -447 0
222 -447 0
-290 -222 447 0
-288 357 0
-438 357 0
288 438 -357 0
-289 358 0
-439 358 0
-440 358 0
289 439 440 -358 0
-290 359 0
-441 359 0
-442 359 0
-443 359 0
290 441 442 443 -359 0
-291 360 0
-444 360 0
-445 360 0
-446 360 0
-447 360 0
291 444 445 446 447 -360 0
360 -448 0
223 -448 0
-360 -223 448 0
360 -449 0
223 -449 0
224 -449 0
-360 -223 -224 449 0
292 -450 0
224 -450 0
-292 -224 450 0
360 -451 0
223 -451 0
224 -451 0
225 -451 0
-360 -223 -224 -225 451 0
292 -452 0
224 -452 0
225 -452 0
-292 -224 -225 452 0
293 -453 0
225 -453 0
-293 -225 453 0
360 -454 0
223 -454 0
224 -454 0
225 -454 0
226 -454 0
-360 -223 -224 -225 -226 454 0
292 -455 0
224 -455 0
225 -455 0
226 -455 0
-292 -224 -225 -226 455 0
293 -456 0
225 -456 0
226 -456 0
-293 -225 -226 456 0
294 -457 0
226 -457 0
-294 -226 457 0
-292 361 0
-448 361 0
292 448 -361 0
-293 362 0
-449 362 0
-450 362 0
293 449 450 -362 0
-294 363 0
-451 363 0
-452 363 0
-453 363 0
294 451 452 453 -363 0
-295 364 0
-454 364 0
-455 364 0
-456 364 0
-457 364 0
295 454 455 456 457 -364 0
364 -458 0
227 -458 0
-364 -227 458 0
364 -459 0
227 -459 0
228 -459 0
-364 -227 -228 459 0
296 -460 0
228 -460 0
-296 -228 460 0
364 -461 0
227 -461 0
228 -461 0
229 -461 0
-364 -227 -228 -229 461 0
296 -462 0
228 -462 0
229 -462 0
-296 -228 -229 462 0
297 -463 0
229 -463 0
-297 -229 463 0
364 -464 0
227 -464 0
228 -464 0
229 -464 0
230 -464 0
-364 -227 -228 -229 -230 464 0
296 -465 0
228 -465 0
229 -465 0
230 -465 0
-296 -228 -229 -230 465 0
297 -466 0
229 -466 0
230 -466 0
-297 -229 -230 466 0
298 -467 0
230 -467 0
-298 -230 467 0
-296 365 0
-458 365 0
296 458 -365 0
-297 366 0
-459 366 0
-460 366 0
297 459 460 -366 0
-298 367 0
-461 367 0
-462 367 0
-463 367 0
298 461 462 463 -367 0
-299 368 0
-464 368 0
-465 368 0
-466 368 0
-467 368 0
299 464 465 466 467 -368 0
368 -468 0
231 -468 0
-368 -231 468 0
368 -469 0
231 -469 0
232 -469 0
-368 -231 -232 469 0
300 -470 0
232 -470 0
-300 -232 470 0
368 -471 0
231 -471 0
232 -471 0
233 -471 0
-368 -231 -232 -233 471 0
300 -472 0
232 -472 0
233 -472 0
-300 -232 -233 472 0
301 -473 0
233 -473 0
-301 -233 473 0
368 -474 0
231 -474 0
232 -474 0
233 -474 0
234 -474 0
-368 -231 -232 -233 -234 474 0
300 -475 0
232 -475 0
233 -475 0
234 -475 0
-300 -232 -233 -234 475 0
301 -476 0
233 -476 0
234 -476 0
-301 -233 -234 476 0
302 -477 0
234 -477 0
-302 -234 477 0
-300 369 0
-468 369 0
300 468 -369 0
-301 370 0
-469 370 0
-470 370 0
301 469 470 -370 0
-302 371 0
-471 371 0
-472 371 0
-473 371 0
302 471 472 473 -371 0
-303 372 0
-474 372 0
-475 372 0
-476 372 0
-477 372 0
303 474 475 476 477 -372 0
372 -478 0
235 -478 0
-372 -235 478 0
372 -479 0
235 -479 0
236 -479 0
-372 -235 -236 479 0
304 -480 0
236 -480 0
-304 -236 480 0
372 -481 0
235 -481 0
236 -481 0
237 -481 0
-372 -235 -236 -237 481 0
304 -482 0
236 -482 0
237 -482 0
-304 -236 -237 482 0
305 -483 0
237 -483 0
-305 -237 483 0
372 -484 0
235 -484 0
236 -484 0
237 -484 0
238 -484 0
-372 -235 -236 -237 -238 484 0
304 -485 0
236 -485 0
237 -485 0
238 -485 0
-304 -236 -237 -238 485 0
305 -486 0
237 -486 0
238 -486 0
-305 -237 -238 486 0
306 -487 0
238 -487 0
-306 -238 487 0
-304 373 0
-478 373 0
304 478 -373 0
-305 374 0
-479 374 0
-480 374 0
305 479 480 -374 0
-306 375 0
-481 375 0
-482 375 0
-483 375 0
306 481 482 483 -375 0
-307 376 0
-484 376 0
-485 376 0
-486 376 0
-487 376 0
307 484 485 486 487 -376 0
376 -488 0
239 -488 0
-376 -239 488 0
376 -489 0
239 -489 0
240 -489 0
-376 -239 -240 489 0
308 -490 0
240 -490 0
-308 -240 490 0
376 -491 0
239 -491 0
240 -491 0
241 -491 0
-376 -239 -240 -241 491 0
308 -492 0
240 -492 0
241 -492 0
-308 -240 -241 492 0
309 -493 0
241 -493 0
-309 -241 493 0
376 -494 0
239 -494 0
240 -494 0
241 -494 0
242 -494 0
-376 -239 -240 -241 -242 494 0
308 -495 0
240 -495 0
241 -495 0
242 -495 0
-308 -240 -241 -242 495 0
309 -496 0
241 -496 0
242 -496 0
-309 -241 -242 496 0
310 -497 0
242 -497 0
-310 -242 497 0
-308 377 0
-488 377 0
308 488 -377 0
-309 378 0
-489 378 0
-490 378 0
309 489 490 -378 0
-310 379 0
-491 379 0
-492 379 0
-493 379 0
310 491 492 493 -379 0
-311 380 0
-494 380 0
-495 380 0
-496 380 0
-497 380 0
311 494 495 496 497 -380 0
380 -498 0
243 -498 0
-380 -243 498 0
380 -499 0
243 -499 0
244 -499 0
-380 -243 -244 499 0
312 -500 0
244 -500 0
-312 -244 500 0
380 -501 0
243 -501 0
244 -501 0
245 -501 0
-380 -243 -244 -245 501 0
312 -502 0
244 -502 0
245 -502 0
-312 -244 -245 502 0
313 -503 0
245 -503 0
-313 -245 503 0
380 -504 0
243 -504 0
244 -504 0
245 -504 0
246 -504 0
-380 -243 -244 -245 -246 504 0
312 -505 0
244 -505 0
245 -505 0
246 -505 0
-312 -244 -245 -246 505 0
313 -506 0
245 -506 0
246 -506 0
-313 -245 -246 506 0
314 -507 0
246 -507 0
-314 -246 507 0
-312 381 0
-498 381 0
312 498 -381 0
-313 382 0
-499 382 0
-500 382 0
313 499 500 -382 0
-314 383 0
-501 383 0
-502 383 0
-503 383 0
314 501 502 503 -383 0
-315 384 0
-504 384 0
-505 384 0
-506 384 0
-507 384 0
315 504 505 506 507 -384 0
384 -508 0
247 -508 0
-384 -247 508 0
384 -509 0
247 -509 0
248 -509 0
-384 -247 -248 509 0
316 -510 0
248 -510 0
-316 -248 510 0
384 -511 0
247 -511 0
248 -511 0
249 -511 0
-384 -247 -248 -249 511 0
316 -512 0
248 -512 0
249 -512 0
-316 -248 -249 512 0
317 -513 0
249 -513 0
-317 -249 513 0
384 -514 0
247 -514 0
248 -514 0
249 -514 0
250 -514 0
-384 -247 -248 -249 -250 514 0
316 -515 0
248 -515 0
249 -515 0
250 -515 0
-316 -248 -249 -250 515 0
317 -516 0
249 -516 0
250 -516 0
-317 -249 -250 516 0
318 -517 0
250 -517 0
-318 -250 517 0
-316 385 0
-508 385 0
316 508 -385 0
-317 386 0
-509 386 0
-510 386 0
317 509 510 -386 0
-318 387 0
-511 387 0
-512 387 0
-513 387 0
318 511 512 513 -387 0
-319 388 0
-514 388 0
-515 388 0
-516 388 0
-517 388 0
319 514 515 516 517 -388 0
388 -518 0
251 -518 0
-388 -251 518 0
388 -519 0
251 -519 0
252 -519 0
-388 -251 -252 519 0
320 -520 0
252 -520 0
-320 -252 520 0
388 -521 0
251 -521 0
252 -521 0
253 -521 0
-388 -251 -252 -253 521 0
320 -522 0
252 -522 0
253 -522 0
-320 -252 -253 522 0
321 -523 0
253 -523 0
-321 -253 523 0
388 -524 0
251 -524 0
252 -524 0
253 -524 0
254 -524 0
-388 -251 -252 -253 -254 524 0
320 -525 0
252 -525 0
253 -525 0
254 -525 0
-320 -252 -253 -254 525 0
321 -526 0
253 -526 0
254 -526 0
-321 -253 -254 526 0
322 -527 0
254 -527 0
-322 -254 527 0
-320 389 0
-518 389 0
320 518 -389 0
-321 390 0
-519 390 0
-520 390 0
321 519 520 -390 0
-322 391 0
-521 391 0
-522 391 0
-523 391 0
322 521 522 523 -391 0
-323 392 0
-524 392 0
-525 392 0
-526 392 0
-527 392 0
323 524 525 526 527 -392 0
392 -528 0
255 -528 0
-392 -255 528 0
392 -529 0
255 -529 0
256 -529 0
-392 -255 -256 529 0
324 -530 0
256 -530 0
-324 -256 530 0
392 -531 0
255 -531 0
256 -531 0
257 -531 0
-392 -255 -256 -257 531 0
324 -532 0
256 -532 0
257 -532 0
-324 -256 -257 532 0
325 -533 0
257 -533 0
-325 -257 533 0
392 -534 0
255 -534 0
256 -534 0
257 -534 0
258 -534 0
-392 -255 -256 -257 -258 534 0
324 -535 0
256 -535 0
257 -535 0
258 -535 0
-324 -256 -257 -258 535 0
325 -536 0
257 -536 0
258 -536 0
-325 -257 -258 536 0
326 -537 0
258 -537 0
-326 -258 537 0
-324 393 0
-528 393 0
324 528 -393 0
-325 394 0
-529 394 0
-530 394 0
325 529 530 -394 0
-326 395 0
-531 395 0
-532 395 0
-533 395 0
326 531 532 533 -395 0
-327 396 0
-534 396 0
-535 396 0
-536 396 0
-537 396 0
327 534 535 536 537 -396 0
396 -538 0
259 -538 0
-396 -259 538 0
396 -539 0
259 -539 0
260 -539 0
-396 -259 -260 539 0
328 -540 0
260 -540 0
-328 -260 540 0
396 -541 0
259 -541 0
260 -541 0
261 -541 0
-396 -259 -260 -261 541 0
328 -542 0
260 -542 0
261 -542 0
-328 -260 -261 542 0
329 -543 0
261 -543 0
-329 -261 543 0
396 -544 0
259 -544 0
260 -544 0
261 -544 0
262 -544 0
-396 -259 -260 -261 -262 544 0
328 -545 0
260 -545 0
261 -545 0
262 -545 0
-328 -260 -261 -262 545 0
329 -546 0
261 -546 0
262 -546 0
-329 -261 -262 546 0
330 -547 0
262 -547 0
-330 -262 547 0
-328 397 0
-538 397 0
328 538 -397 0
-329 398 0
-539 398 0
-540 398 0
329 539 540 -398 0
-330 399 0
-541 399 0
-542 399 0
-543 399 0
330 541 542 543 -399 0
-331 400 0
-544 400 0
-545 400 0
-546 400 0
-547 400 0
331 544 545 546 547 -400 0
400 -548 0
263 -548 0
-400 -263 548 0
400 -549 0
263 -549 0
264 -549 0
-400 -263 -264 549 0
332 -550 0
264 -550 0
-332 -264 550 0
400 -551 0
263 -551 0
264 -551 0
265 -551 0
-400 -263 -264 -265 551 0
332 -552 0
264 -552 0
265 -552 0
-332 -264 -265 552 0
333 -553 0
265 -553 0
-333 -265 553 0
400 -554 0
263 -554 0
264 -554 0
265 -554 0
266 -554 0
-400 -263 -264 -265 -266 554 0
332 -555 0
264 -555 0
265 -555 0
266 -555 0
-332 -264 -265 -266 555 0
333 -556 0
265 -556 0
266 -556 0
-333 -265 -266 556 0
334 -557 0
266 -557 0
-334 -266 557 0
-332 401 0
-548 401 0
332 548 -401 0
-333 402 0
-549 402 0
-550 402 0
333 549 550 -402 0
-334 403 0
-551 403 0
-552 403 0
-553 403 0
334 551 552 553 -403 0
-335 404 0
-554 404 0
-555 404 0
-556 404 0
-557 404 0
335 554 555 556 557 -404 0
404 -558 0
267 -558 0
-404 -267 558 0
404 -559 0
267 -559 0
268 -559 0
-404 -267 -268 559 0
336 -560 0
268 -560 0
-336 -268 560 0
404 -561 0
267 -561 0
268 -561 0
269 -561 0
-404 -267 -268 -269 561 0
336 -562 0
268 -562 0
269 -562 0
-336 -268 -269 562 0
337 -563 0
269 -563 0
-337 -269 563 0
404 -564 0
267 -564 0
268 -564 0
269 -564 0
270 -564 0
-404 -267 -268 -269 -270 564 0
336 -565 0
268 -565 0
269 -565 0
270 -565 0
-336 -268 -269 -270 565 0
337 -566 0
269 -566 0
270 -566 0
-337 -269 -270 566 0
338 -567 0
270 -567 0
-338 -270 567 0
-336 405 0
-558 405 0
336 558 -405 0
-337 406 0
-559 406 0
-560 406 0
337 559 560 -406 0
-338 407 0
-561 407 0
-562 407 0
-563 407 0
338 561 562 563 -407 0
-339 408 0
-564 408 0
-565 408 0
-566 408 0
-567 408 0
339 564 565 566 567 -408 0
408 -568 0
271 -568 0
-408 -271 568 0
408 -569 0
271 -569 0
272 -569 0
-408 -271 -272 569 0
340 -570 0
272 -570 0
-340 -272 570 0
408 -571 0
271 -571 0
272 -571 0
273 -571 0
-408 -271 -272 -273 571 0
340 -572 0
272 -572 0
273 -572 0
-340 -272 -273 572 0
341 -573 0
273 -573 0
-341 -273 573 0
408 -574 0
271 -574 0
272 -574 0
273 -574 0
274 -574 0
-408 -271 -272 -273 -274 574 0
340 -575 0
272 -575 0
273 -575 0
274 -575 0
-340 -272 -273 -274 575 0
341 -576 0
273 -576 0
274 -576 0
-341 -273 -274 576 0
342 -577 0
274 -577 0
-342 -274 577 0
-340 409 0
-568 409 0
340 568 -409 0
-341 410 0
-569 410 0
-570 410 0
341 569 570 -410 0
-342 411 0
-571 411 0
-572 411 0
-573 411 0
342 571 572 573 -411 0
-343 412 0
-574 412 0
-575 412 0
-576 412 0
-577 412 0
343 574 575 576 577 -412 0
412 -578 0
275 -578 0
-412 -275 578 0
412 -579 0
275 -579 0
276 -579 0
-412 -275 -276 579 0
344 -580 0
276 -580 0
-344 -276 580 0
412 -581 0
275 -581 0
276 -581 0
277 -581 0
-412 -275 -276 -277 581 0
344 -582 0
276 -582 0
277 -582 0
-344 -276 -277 582 0
345 -583 0
277 -583 0
-345 -277 583 0
412 -584 0
275 -584 0
276 -584 0
277 -584 0
278 -584 0
-412 -275 -276 -277 -278 584 0
344 -585 0
276 -585 0
277 -585 0
278 -585 0
-344 -276 -277 -278 585 0
345 -586 0
277 -586 0
278 -586 0
-345 -277 -278 586 0
346 -587 0
278 -587 0
-346 -278 587 0
-344 413 0
-578 413 0
344 578 -413 0
-345 414 0
-579 414 0
-580 414 0
345 579 580 -414 0
-346 415 0
-581 415 0
-582 415 0
-583 415 0
346 581 582 583 -415 0
-347 416 0
-584 416 0
-585 416 0
-586 416 0
-587 416 0
347 584 585 586 587 -416 0
416 -588 0
279 -588 0
-416 -279 588 0
-348 417 0
-588 417 0
348 588 -417 0
211 209 -139 0
-211 209 139 0
211 -209 139 0
-211 -209 -139 0
212 349 -140 0
-212 349 140 0
212 -349 140 0
-212 -349 -140 0
213 350 -141 0
-213 350 141 0
213 -350 141 0
-213 -350 -141 0
214 351 -142 0
-214 351 142 0
214 -351 142 0
-214 -351 -142 0
215 352 -143 0
-215 352 143 0
215 -352 143 0
-215 -352 -143 0
216 353 -144 0
-216 353 144 0
216 -353 144 0
-216 -353 -144 0
217 354 -145 0
-217 354 145 0
217 -354 145 0
-217 -354 -145 0
218 355 -146 0
-218 355 146 0
218 -355 146 0
-218 -355 -146 0
219 356 -147 0
-219 356 147 0
219 -356 147 0
-219 -356 -147 0
220 357 -148 0
-220 357 148 0
220 -357 148 0
-220 -357 -148 0
221 358 -149 0
-221 358 149 0
221 -358 149 0
-221 -358 -149 0
222 359 -150 0
-222 359 150 0
222 -359 150 0
-222 -359 -150 0
223 360 -151 0
-223 360 151 0
223 -360 151 0
-223 -360 -151 0
224 361 -152 0
-224 361 152 0
224 -361 152 0
-224 -361 -152 0
225 362 -153 0
-225 362 153 0
225 -362 153 0
-225 -362 -153 0
226 363 -154 0
-226 363 154 0
226 -363 154 0
-226 -363 -154 0
227 364 -155 0
-227 364 155 0
227 -364 155 0
-227 -364 -155 0
228 365 -156 0
-228 365 156 0
228 -365 156 0
-228 -365 -156 0
229 366 -157 0
-229 366 157 0
229 -366 157 0
-229 -366 -157 0
230 367 -158 0
-230 367 158 0
230 -367 158 0
-230 -367 -158 0
231 368 -159 0
-231 368 159 0
231 -368 159 0
-231 -368 -159 0
232 369 -160 0
-232 369 160 0
232 -369 160 0
-232 -369 -160 0
233 370 -161 0
-233 370 161 0
233 -370 161 0
-233 -370 -161 0
234 371 -162 0
-234 371 162 0
234 -371 162 0
-234 -371 -162 0
235 372 -163 0
-235 372 163 0
235 -372 163 0
-235 -372 -163 0
236 373 -164 0
-236 373 164 0
236 -373 164 0
-236 -373 -164 0
237 374 -165 0
-237 374 165 0
237 -374 165 0
-237 -374 -165 0
238 375 -166 0
-238 375 166 0
238 -375 166 0
-238 -375 -166 0
239 376 -167 0
-239 376 167 0
239 -376 167 0
-239 -376 -167 0
240 377 -168 0
-240 377 168 0
240 -377 168 0
-240 -377 -168 0
241 378 -169 0
-241 378 169 0
241 -378 169 0
-241 -378 -169 0
242 379 -170 0
-242 379 170 0
242 -379 170 0
-242 -379 -170 0
243 380 -171 0
-243 380 171 0
243 -380 171 0
-243 -380 -171 0
244 381 -172 0
-244 381 172 0
244 -381 172 0
-244 -381 -172 0
245 382 -173 0
-245 382 173 0
245 -382 173 0
-245 -382 -173 0
246 383 -174 0
-246 383 174 0
246 -383 174 0
-246 -383 -174 0
247 384 -175 0
-247 384 175 0
247 -384 175 0
-247 -384 -175 0
248 385 -176 0
-248 385 176 0
248 -385 176 0
-248 -385 -176 0
249 386 -177 0
-249 386 177 0
249 -386 177 0
-249 -386 -177 0
250 387 -178 0
-250 387 178 0
250 -387 178 0
-250 -387 -178 0
251 388 -179 0
-251 388 179 0
251 -388 179 0
-251 -388 -179 0
252 389 -180 0
-252 389 180 0
252 -389 180 0
-252 -389 -180 0
253 390 -181 0
-253 390 181 0
253 -390 181 0
-253 -390 -181 0
254 391 -182 0
-254 391 182 0
254 -391 182 0
-254 -391 -182 0
255 392 -183 0
-255 392 183 0
255 -392 183 0
-255 -392 -183 0
256 393 -184 0
-256 393 184 0
256 -393 184 0
-256 -393 -184 0
257 394 -185 0
-257 394 185 0
257 -394 185 0
-257 -394 -185 0
258 395 -186 0
-258 395 186 0
258 -395 186 0
-258 -395 -186 0
259 396 -187 0
-259 396 187 0
259 -396 187 0
-259 -396 -187 0
260 397 -188 0
-260 397 188 0
260 -397 188 0
-260 -397 -188 0
261 398 -189 0
-261 398 189 0
261 -398 189 0
-261 -398 -189 0
262 399 -190 0
-262 399 190 0
262 -399 190 0
-262 -399 -190 0
263 400 -191 0
-263 400 191 0
263 -400 191 0
-263 -400 -191 0
264 401 -192 0
-264 401 192 0
264 -401 192 0
-264 -401 -192 0
265 402 -193 0
-265 402 193 0
265 -402 193 0
-265 -402 -193 0
266 403 -194 0
-266 403 194 0
266 -403 194 0
-266 -403 -194 0
267 404 -195 0
-267 404 195 0
267 -404 195 0
-267 -404 -195 0
268 405 -196 0
-268 405 196 0
268 -405 196 0
-268 -405 -196 0
269 406 -197 0
-269 406 197 0
269 -406 197 0
-269 -406 -197 0
270 407 -198 0
-270 407 198 0
270 -407 198 0
-270 -407 -198 0
271 408 -199 0
-271 408 199 0
271 -408 199 0
-271 -408 -199 0
272 409 -200 0
-272 409 200 0
272 -409 200 0
-272 -409 -200 0
273 410 -201 0
-273 410 201 0
273 -410 201 0
-273 -410 -201 0
274 411 -202 0
-274 411 202 0
274 -411 202 0
-274 -411 -202 0
275 412 -203 0
-275 412 203 0
275 -412 203 0
-275 -412 -203 0
276 413 -204 0
-276 413 204 0
276 -413 204 0
-276 -413 -204 0
277 414 -205 0
-277 414 205 0
277 -414 205 0
-277 -414 -205 0
278 415 -206 0
-278 415 206 0
278 -415 206 0
-278 -415 -206 0
279 416 -207 0
-279 416 207 0
279 -416 207 0
-279 -416 -207 0
417 -208 0
-417 208 0
